; NOT NOT => 
(set-option :produce-proofs true)
; 
(set-info :status unknown)
(declare-fun storage_t ((_ BitVec 256) Int (_ BitVec 256)) (_ BitVec 256))
(declare-fun storage_s ((_ BitVec 256) Int (_ BitVec 256)) (_ BitVec 256))
(declare-fun exc_halt_t (Int) Bool)
(declare-fun exc_halt_s (Int) Bool)
(declare-fun stack_t ((_ BitVec 256) Int (_ BitVec 6)) (_ BitVec 256))
(declare-fun stack_s ((_ BitVec 256) Int (_ BitVec 6)) (_ BitVec 256))
(declare-fun sc_t (Int) (_ BitVec 6))
(declare-fun sc_s (Int) (_ BitVec 6))
(declare-fun used_gas_t ((_ BitVec 256) Int) Int)
(declare-fun used_gas_s ((_ BitVec 256) Int) Int)
(assert
 (exists ((x_0 (_ BitVec 256)) )(let (($x8948 (forall ((w (_ BitVec 256)) )(let ((?x5865 (storage_t x_0 0 w)))
 (let ((?x2766 (storage_s x_0 2 w)))
 (= ?x2766 ?x5865))))
 ))
 (let (($x56 (exc_halt_t 0)))
 (let (($x247 (exc_halt_s 2)))
 (let (($x6052 (= $x247 $x56)))
 (let (($x7347 (forall ((n (_ BitVec 6)) )(let ((?x8445 (stack_t x_0 0 n)))
 (let ((?x8944 (stack_s x_0 2 n)))
 (let (($x7840 (= ?x8944 ?x8445)))
 (let ((?x63 (sc_t 0)))
 (let (($x4379 (bvsle ?x63 n)))
 (or $x4379 $x7840)))))))
 ))
 (let ((?x63 (sc_t 0)))
 (let ((?x218 (sc_s 2)))
 (let (($x5823 (= ?x218 ?x63)))
 (let ((?x2978 (used_gas_s x_0 0)))
 (let (($x3519 (= ?x2978 (used_gas_t x_0 0))))
 (let (($x3016 (forall ((w (_ BitVec 256)) )(let ((?x5865 (storage_t x_0 0 w)))
 (let ((?x8241 (storage_s x_0 0 w)))
 (= ?x8241 ?x5865))))
 ))
 (let (($x57 (exc_halt_s 0)))
 (let (($x58 (= $x57 $x56)))
 (let (($x7827 (forall ((n (_ BitVec 6)) )(let ((?x8445 (stack_t x_0 0 n)))
 (let ((?x8513 (stack_s x_0 0 n)))
 (let (($x8516 (= ?x8513 ?x8445)))
 (let ((?x63 (sc_t 0)))
 (let (($x4379 (bvsle ?x63 n)))
 (or $x4379 $x8516)))))))
 ))
 (let ((?x72 (sc_s 0)))
 (let (($x73 (= ?x72 ?x63)))
 (let (($x4877 (= $x247 (or (exc_halt_s 1) (not (bvsle (_ bv0 6) (bvadd (_ bv63 6) (sc_s 1))))))))
 (let (($x8580 (forall ((w (_ BitVec 256)) )(let ((?x8260 (storage_s x_0 1 w)))
 (let ((?x2766 (storage_s x_0 2 w)))
 (= ?x2766 ?x8260))))
 ))
 (let (($x8552 (forall ((n (_ BitVec 6)) )(let ((?x154 (sc_s 1)))
 (let ((?x2733 (bvadd (_ bv63 6) ?x154)))
 (let (($x9668 (bvsle ?x2733 n)))
 (or (= (stack_s x_0 2 n) (stack_s x_0 1 n)) $x9668)))))
 ))
 (let ((?x154 (sc_s 1)))
 (let (($x8328 (= ?x218 ?x154)))
 (let (($x8281 (= (stack_s x_0 2 (bvadd (_ bv63 6) ?x218)) (bvnot (stack_s x_0 1 (bvadd (_ bv63 6) ?x154))))))
 (let (($x189 (exc_halt_s 1)))
 (let (($x1843 (= $x189 (or $x57 (not (bvsle (_ bv0 6) (bvadd (_ bv63 6) ?x72)))))))
 (let (($x5841 (forall ((w (_ BitVec 256)) )(let ((?x8241 (storage_s x_0 0 w)))
 (let ((?x8260 (storage_s x_0 1 w)))
 (= ?x8260 ?x8241))))
 ))
 (let (($x7611 (forall ((n (_ BitVec 6)) )(let ((?x72 (sc_s 0)))
 (let ((?x10965 (bvadd (_ bv63 6) ?x72)))
 (let (($x2446 (bvsle ?x10965 n)))
 (or $x2446 (= (stack_s x_0 1 n) (stack_s x_0 0 n)))))))
 ))
 (let (($x1914 (= ?x154 ?x72)))
 (let ((?x2733 (bvadd (_ bv63 6) ?x154)))
 (let ((?x8180 (stack_s x_0 1 ?x2733)))
 (let (($x1017 (forall ((w (_ BitVec 256)) )(let ((?x8241 (storage_s x_0 0 w)))
 (= ?x8241 (_ bv0 256))))
 ))
 (let (($x3359 (= ?x2978 0)))
 (let (($x6677 (not $x57)))
 (let (($x863 (= (stack_s x_0 0 (_ bv0 6)) x_0)))
 (let (($x8685 (= ?x72 (_ bv1 6))))
 (and $x8685 $x863 $x6677 $x3359 $x1017 (= ?x8180 (bvnot (stack_s x_0 0 (bvadd (_ bv63 6) ?x72)))) (= (used_gas_s x_0 1) (+ 3 ?x2978)) $x1914 $x7611 $x5841 $x1843 $x8281 (= (used_gas_s x_0 2) (+ 3 (used_gas_s x_0 1))) $x8328 $x8552 $x8580 $x4877 $x73 $x7827 $x58 $x3016 $x3519 (not (and $x5823 $x7347 $x6052 $x8948))))))))))))))))))))))))))))))))))))))
 )
(check-sat)
(get-proof)
